NAME : rnd19_20.tsp
TYPE : TSP
DIMENSION : 20
EDGE_WEIGHT_TYPE : EUC_2D
NODE_COORD_SECTION
0 726 588
1 435 663
2 894 123
3 215 436
4 727 7
5 979 410
6 636 650
7 761 433
8 565 204
9 263 482
10 930 425
11 367 905
12 20 656
13 997 221
14 813 522
15 967 151
16 710 66
17 929 623
18 161 802
19 30 68
